c This is QMaxSAT 2017 based on 14.07
c This is Glucose 3.0
c This is MiniSat 2.2.0
c WARNING: for repeatability, setting FPU to use double precision
c card = mrwto, comp = 0, pmodel = 0, narr = 6, mct = 42, verb = 0
cr firstCPXsol 0 0 0
c top = 127531
c |  Number of variables:    77824                                            |
c |  Number of clauses:      55099994                                         |
c |  Weight of hard clauses: 127531                                           |
c |  Number of soft clauses: 10332                                            |
c |  Number of unit soft clauses: 10332                                       |
c |  Maximum Cardinality (by unit): 765180       (765180      )               |
c last restart ## conflicts  :  5 6064 
o 1231 | cpuTime 15.395 s
c Sum of weights = 127530
c A number of soft clauses remained = 1722
c MRWTO encoding for Pseudo-Boolean Constraints
c sizeMax=1231
c No.0 Divisor=11	generated by pow1
c No.1 Divisor=11	generated by pow1
c No.2 Divisor=11	generated by pow1
c p0= 11	p1= 11	p2= 11	
c number of digits = 4
c linkingVar[0].size = 11, linkingVar[1].size = 11, linkingVar[2].size = 11, linkingVar[3].size = 1, 
c Pseudo-Boolean Constraints: 34785 variables and 308787 clauses
c Sum of weights = 127530
c A number of soft clauses remained = 1722
c MRWTO encoding for Pseudo-Boolean Constraints
c sizeMax=1231
c No.0 Divisor=11	generated by pow1
c No.1 Divisor=11	generated by pow1
c No.2 Divisor=11	generated by pow1
c p0= 11	p1= 11	p2= 11	
c number of digits = 4
c linkingVar[0].size = 11, linkingVar[1].size = 11, linkingVar[2].size = 11, linkingVar[3].size = 1, 
c Pseudo-Boolean Constraints: 34785 variables and 308787 clauses
c Sum of weights = 127530
c A number of soft clauses remained = 1722
c MRWTO encoding for Pseudo-Boolean Constraints
c sizeMax=1231
c No.0 Divisor=11	generated by pow1
c No.1 Divisor=11	generated by pow1
c No.2 Divisor=11	generated by pow1
c p0= 11	p1= 11	p2= 11	
c number of digits = 4
c linkingVar[0].size = 11, linkingVar[1].size = 11, linkingVar[2].size = 11, linkingVar[3].size = 1, 
c Pseudo-Boolean Constraints: 34785 variables and 308787 clauses
c Sum of weights = 127530
c A number of soft clauses remained = 1722
c MRWTO encoding for Pseudo-Boolean Constraints
c sizeMax=1231
c No.0 Divisor=11	generated by pow1
c No.1 Divisor=11	generated by pow1
c No.2 Divisor=11	generated by pow1
c p0= 11	p1= 11	p2= 11	
c number of digits = 4
c linkingVar[0].size = 11, linkingVar[1].size = 11, linkingVar[2].size = 11, linkingVar[3].size = 1, 
c Pseudo-Boolean Constraints: 34785 variables and 308787 clauses
c Sum of weights = 127530
c A number of soft clauses remained = 1722
c MRWTO encoding for Pseudo-Boolean Constraints
c sizeMax=1231
c No.0 Divisor=11	generated by pow1
c No.1 Divisor=11	generated by pow1
c No.2 Divisor=11	generated by pow1
c p0= 11	p1= 11	p2= 11	
c number of digits = 4
c linkingVar[0].size = 11, linkingVar[1].size = 11, linkingVar[2].size = 11, linkingVar[3].size = 1, 
c Pseudo-Boolean Constraints: 34785 variables and 308787 clauses
c Sum of weights = 127530
c A number of soft clauses remained = 1722
c MRWTO encoding for Pseudo-Boolean Constraints
c sizeMax=1231
c No.0 Divisor=11	generated by pow1
c No.1 Divisor=11	generated by pow1
c No.2 Divisor=11	generated by pow1
c p0= 11	p1= 11	p2= 11	
c number of digits = 4
c linkingVar[0].size = 11, linkingVar[1].size = 11, linkingVar[2].size = 11, linkingVar[3].size = 1, 
c Pseudo-Boolean Constraints: 34785 variables and 308787 clauses
c last restart ## conflicts  :  257 18258 
o 1070 | cpuTime 2740.59 s
c last restart ## conflicts  :  159 14167 
o 894 | cpuTime 2962.27 s
c last restart ## conflicts  :  165 10019 
o 831 | cpuTime 2975.92 s
c last restart ## conflicts  :  995 21241 
o 827 | cpuTime 3076.01 s
c last restart ## conflicts  :  99 11402 
o 769 | cpuTime 3373.81 s
s UNKNOWN
c Search is stopped by a limit (maybe time-limit)
cr positiVarArr: [ | 3@1(1->3) | 92@1(3->8) | 319@1(8->25) | 433@1(11->13) | 473@1(12->11) | 522@1(13->18) | 694@1(17->22) | 737@1(18->23) | 784@1(19->28) | 913@1(22->31) | 943@1(23->19) | 978@1(24->12) | 1025@1(25->17) | 1166@1(28->32) | 1284@1(31->24) | 1335@1(32->33) | 1378@1(33->34) | 1425@1(34->39) | 1637@1(39->41) | 1681@1(41->1) | 1766@2(1->2) | 1807@2(2->1) | 3548@3(1->20) | 3781@3(7->1) | 3944@3(10->38) | 4089@3(14->15) | 4123@3(15->7) | 4336@3(20->10) | 5096@3(38->14) | 5297@4(1->5) | 5444@4(4->26) | 5487@4(5->27) | 5503@4(6->1) | 5634@4(9->6) | 6377@4(26->35) | 6388@4(27->4) | 6547@4(30->37) | 6750@4(35->30) | 6813@4(37->9) | 7077@5(1->21) | 7897@5(21->1) | 8836@6(1->16) | 9486@6(16->36) | 10036@6(29->40) | 10332@6(36->42) | 10459@6(40->1) | 10571@6(42->29) | ]
cr the 1-th chain: [ 1->3->8->25->17->22->31->24->12->11->13->18->23->19->28->32->33->34->39->41->1 ] (#non-depot=19) {#cumul.=20}
cr the 2-th chain: [ 1->2->1 ] (#non-depot=1) {#cumul.=21}
cr the 3-th chain: [ 1->20->10->38->14->15->7->1 ] (#non-depot=6) {#cumul.=27}
cr the 4-th chain: [ 1->5->27->4->26->35->30->37->9->6->1 ] (#non-depot=9) {#cumul.=36}
cr the 5-th chain: [ 1->21->1 ] (#non-depot=1) {#cumul.=37}
cr the 6-th chain: [ 1->16->36->42->29->40->1 ] (#non-depot=5) {#cumul.=42}
c Latest Answer = 0 by 6 loops
c restarts              : 38507
c conflicts             : 8310396        (2325 /sec)
c decisions             : 151793387      (0.00 % random) (42469 /sec)
c propagations          : 10894105612    (3047979 /sec)
c conflict literals     : 5807858588     (4.21 % deleted)
c Memory used           : 5514.00 MB
c CPU time              : 3574.21 s
